# Objective value = 1.0279305000000011e+04
x_0_3 0
x_0_5 0
x_0_6 0
x_0_7 0
x_0_8 1
x_0_9 0
x_0_10 9.9999999999999956e-01
x_0_12 0
x_0_13 0
x_0_16 1.0000000000000004e+00
x_0_19 0
x_0_20 0
x_0_22 1
x_0_25 4.9960036108132044e-16
x_0_26 9.9999999999999956e-01
x_0_28 -2.2204460492503131e-16
x_0_30 0
x_0_31 0
x_0_32 0
x_0_33 0
x_0_34 0
x_0_36 0
x_0_38 0
x_0_39 0
x_0_41 0
x_0_43 1
x_0_46 0
x_0_47 0
x_0_48 0
x_0_49 1
x_0_50 0
x_0_51 0
x_0_56 1
x_0_57 -2.2204460492503131e-16
x_0_59 1
x_0_60 0
x_0_62 0
x_0_63 0
x_0_64 -2.2204460492503131e-16
x_0_69 0
x_0_72 0
x_0_75 0
x_0_77 0
x_0_79 0
x_0_80 1
x_0_87 0
x_0_88 0
x_0_89 -2.2204460492503131e-16
x_0_92 0
x_0_93 0
x_0_96 1.0000000000000004e+00
x_0_98 1.0000000000000002e+00
x_0_99 0
x_0_100 0
x_0_102 1
x_0_103 -2.2204460492503131e-16
x_0_108 1.0000000000000002e+00
x_0_110 1
x_0_111 1.0000000000000002e+00
x_0_112 0
x_0_114 2.7755575615628914e-16
x_0_118 0
x_0_121 0
x_0_122 0
x_0_123 0
x_0_124 1
x_0_126 0
x_0_127 0
x_0_128 1
x_0_130 0
x_0_132 0
x_0_133 0
x_0_137 0
x_0_140 9.9999999999999956e-01
x_0_141 0
x_0_144 0
x_0_145 0
x_0_146 0
x_0_148 0
x_3_5 0
x_3_6 0
x_3_7 0
x_3_8 0
x_3_9 0
x_3_10 0
x_3_12 0
x_3_13 0
x_3_16 0
x_3_19 0
x_3_20 0
x_3_22 0
x_3_25 0
x_3_26 0
x_3_28 0
x_3_30 0
x_3_31 0
x_3_32 0
x_3_33 0
x_3_34 0
x_3_36 0
x_3_38 0
x_3_39 0
x_3_41 0
x_3_43 0
x_3_46 0
x_3_47 0
x_3_48 0
x_3_49 0
x_3_50 0
x_3_51 0
x_3_56 0
x_3_57 0
x_3_59 0
x_3_60 0
x_3_62 0
x_3_63 0
x_3_64 0
x_3_69 0
x_3_72 0
x_3_75 1
x_3_77 0
x_3_79 0
x_3_80 0
x_3_87 0
x_3_88 0
x_3_89 0
x_3_92 0
x_3_93 0
x_3_96 0
x_3_98 0
x_3_99 0
x_3_100 0
x_3_102 0
x_3_103 0
x_3_108 0
x_3_110 0
x_3_111 0
x_3_112 0
x_3_114 0
x_3_118 0
x_3_121 0
x_3_122 0
x_3_123 0
x_3_124 0
x_3_126 0
x_3_127 0
x_3_128 0
x_3_130 0
x_3_132 0
x_3_133 0
x_3_137 0
x_3_140 0
x_3_141 0
x_3_144 0
x_3_145 0
x_3_146 0
x_3_148 0
x_5_6 0
x_5_7 0
x_5_8 0
x_5_9 0
x_5_10 0
x_5_12 0
x_5_13 0
x_5_16 0
x_5_19 0
x_5_20 0
x_5_22 0
x_5_25 0
x_5_26 0
x_5_28 0
x_5_30 0
x_5_31 0
x_5_32 0
x_5_33 0
x_5_34 0
x_5_36 0
x_5_38 0
x_5_39 0
x_5_41 0
x_5_43 0
x_5_46 0
x_5_47 0
x_5_48 0
x_5_49 0
x_5_50 0
x_5_51 0
x_5_56 0
x_5_57 0
x_5_59 0
x_5_60 0
x_5_62 0
x_5_63 0
x_5_64 0
x_5_69 0
x_5_72 0
x_5_75 0
x_5_77 0
x_5_79 0
x_5_80 0
x_5_87 0
x_5_88 0
x_5_89 0
x_5_92 0
x_5_93 0
x_5_96 0
x_5_98 0
x_5_99 0
x_5_100 0
x_5_102 0
x_5_103 0
x_5_108 0
x_5_110 0
x_5_111 0
x_5_112 0
x_5_114 0
x_5_118 1
x_5_121 0
x_5_122 0
x_5_123 0
x_5_124 0
x_5_126 0
x_5_127 0
x_5_128 0
x_5_130 0
x_5_132 0
x_5_133 0
x_5_137 0
x_5_140 0
x_5_141 0
x_5_144 0
x_5_145 0
x_5_146 0
x_5_148 0
x_6_7 0
x_6_8 0
x_6_9 0
x_6_10 0
x_6_12 0
x_6_13 0
x_6_16 0
x_6_19 0
x_6_20 0
x_6_22 0
x_6_25 0
x_6_26 0
x_6_28 0
x_6_30 0
x_6_31 0
x_6_32 0
x_6_33 0
x_6_34 0
x_6_36 0
x_6_38 0
x_6_39 0
x_6_41 0
x_6_43 0
x_6_46 0
x_6_47 0
x_6_48 0
x_6_49 0
x_6_50 0
x_6_51 0
x_6_56 0
x_6_57 0
x_6_59 0
x_6_60 0
x_6_62 1.0000000000000002e+00
x_6_63 0
x_6_64 0
x_6_69 0
x_6_72 0
x_6_75 0
x_6_77 0
x_6_79 0
x_6_80 0
x_6_87 0
x_6_88 0
x_6_89 0
x_6_92 0
x_6_93 0
x_6_96 0
x_6_98 0
x_6_99 0
x_6_100 0
x_6_102 0
x_6_103 0
x_6_108 0
x_6_110 0
x_6_111 0
x_6_112 0
x_6_114 0
x_6_118 0
x_6_121 0
x_6_122 0
x_6_123 0
x_6_124 0
x_6_126 0
x_6_127 0
x_6_128 0
x_6_130 0
x_6_132 0
x_6_133 0
x_6_137 0
x_6_140 0
x_6_141 0
x_6_144 0
x_6_145 0
x_6_146 0
x_6_148 1
x_7_8 0
x_7_9 0
x_7_10 0
x_7_12 0
x_7_13 0
x_7_16 0
x_7_19 0
x_7_20 0
x_7_22 0
x_7_25 0
x_7_26 0
x_7_28 0
x_7_30 0
x_7_31 0
x_7_32 0
x_7_33 0
x_7_34 0
x_7_36 0
x_7_38 0
x_7_39 0
x_7_41 0
x_7_43 0
x_7_46 0
x_7_47 0
x_7_48 0
x_7_49 0
x_7_50 0
x_7_51 0
x_7_56 0
x_7_57 0
x_7_59 0
x_7_60 0
x_7_62 0
x_7_63 0
x_7_64 0
x_7_69 1
x_7_72 0
x_7_75 0
x_7_77 0
x_7_79 0
x_7_80 0
x_7_87 1
x_7_88 0
x_7_89 0
x_7_92 0
x_7_93 0
x_7_96 0
x_7_98 0
x_7_99 0
x_7_100 1
x_7_102 0
x_7_103 0
x_7_108 0
x_7_110 0
x_7_111 0
x_7_112 0
x_7_114 0
x_7_118 0
x_7_121 0
x_7_122 0
x_7_123 0
x_7_124 0
x_7_126 0
x_7_127 0
x_7_128 0
x_7_130 0
x_7_132 0
x_7_133 0
x_7_137 0
x_7_140 0
x_7_141 0
x_7_144 0
x_7_145 0
x_7_146 0
x_7_148 0
x_8_9 0
x_8_10 1
x_8_12 0
x_8_13 0
x_8_16 9.9999999999999978e-01
x_8_19 0
x_8_20 0
x_8_22 1
x_8_25 3.3306690738754696e-16
x_8_26 1
x_8_28 0
x_8_30 0
x_8_31 0
x_8_32 0
x_8_33 0
x_8_34 0
x_8_36 0
x_8_38 0
x_8_39 0
x_8_41 0
x_8_43 1
x_8_46 0
x_8_47 0
x_8_48 0
x_8_49 1
x_8_50 0
x_8_51 0
x_8_56 1
x_8_57 0
x_8_59 1
x_8_60 0
x_8_62 0
x_8_63 0
x_8_64 0
x_8_69 0
x_8_72 0
x_8_75 0
x_8_77 0
x_8_79 0
x_8_80 1
x_8_87 0
x_8_88 0
x_8_89 0
x_8_92 0
x_8_93 0
x_8_96 1
x_8_98 1
x_8_99 0
x_8_100 0
x_8_102 1
x_8_103 0
x_8_108 1
x_8_110 1
x_8_111 9.9999999999999933e-01
x_8_112 0
x_8_114 0
x_8_118 0
x_8_121 0
x_8_122 0
x_8_123 0
x_8_124 1
x_8_126 0
x_8_127 0
x_8_128 1
x_8_130 0
x_8_132 0
x_8_133 0
x_8_137 0
x_8_140 9.9999999999999956e-01
x_8_141 0
x_8_144 0
x_8_145 0
x_8_146 0
x_8_148 0
x_9_10 0
x_9_12 0
x_9_13 0
x_9_16 0
x_9_19 0
x_9_20 0
x_9_22 0
x_9_25 0
x_9_26 0
x_9_28 0
x_9_30 0
x_9_31 0
x_9_32 0
x_9_33 0
x_9_34 0
x_9_36 0
x_9_38 0
x_9_39 0
x_9_41 0
x_9_43 0
x_9_46 0
x_9_47 0
x_9_48 0
x_9_49 0
x_9_50 0
x_9_51 0
x_9_56 0
x_9_57 0
x_9_59 0
x_9_60 0
x_9_62 0
x_9_63 0
x_9_64 0
x_9_69 0
x_9_72 0
x_9_75 0
x_9_77 0
x_9_79 0
x_9_80 0
x_9_87 0
x_9_88 0
x_9_89 0
x_9_92 0
x_9_93 0
x_9_96 0
x_9_98 0
x_9_99 0
x_9_100 0
x_9_102 0
x_9_103 0
x_9_108 0
x_9_110 0
x_9_111 0
x_9_112 0
x_9_114 0
x_9_118 0
x_9_121 0
x_9_122 0
x_9_123 0
x_9_124 0
x_9_126 0
x_9_127 0
x_9_128 0
x_9_130 0
x_9_132 0
x_9_133 0
x_9_137 0
x_9_140 0
x_9_141 0
x_9_144 0
x_9_145 1
x_9_146 0
x_9_148 0
x_10_12 0
x_10_13 0
x_10_16 9.9999999999999967e-01
x_10_19 0
x_10_20 0
x_10_22 9.9999999999999956e-01
x_10_25 0
x_10_26 1
x_10_28 0
x_10_30 0
x_10_31 0
x_10_32 3.3306690738754696e-16
x_10_33 0
x_10_34 0
x_10_36 0
x_10_38 3.3306690738754696e-16
x_10_39 0
x_10_41 0
x_10_43 1
x_10_46 0
x_10_47 0
x_10_48 0
x_10_49 1
x_10_50 0
x_10_51 0
x_10_56 9.9999999999999933e-01
x_10_57 0
x_10_59 9.9999999999999956e-01
x_10_60 0
x_10_62 0
x_10_63 0
x_10_64 0
x_10_69 0
x_10_72 0
x_10_75 0
x_10_77 0
x_10_79 3.3306690738754696e-16
x_10_80 1
x_10_87 0
x_10_88 3.3306690738754696e-16
x_10_89 0
x_10_92 0
x_10_93 0
x_10_96 1
x_10_98 1
x_10_99 0
x_10_100 0
x_10_102 1
x_10_103 0
x_10_108 9.9999999999999933e-01
x_10_110 9.9999999999999956e-01
x_10_111 9.9999999999999933e-01
x_10_112 0
x_10_114 0
x_10_118 0
x_10_121 0
x_10_122 0
x_10_123 0
x_10_124 9.9999999999999956e-01
x_10_126 3.3306690738754696e-16
x_10_127 0
x_10_128 9.9999999999999956e-01
x_10_130 0
x_10_132 0
x_10_133 0
x_10_137 3.3306690738754696e-16
x_10_140 1
x_10_141 0
x_10_144 0
x_10_145 0
x_10_146 0
x_10_148 0
x_12_13 0
x_12_16 0
x_12_19 0
x_12_20 0
x_12_22 0
x_12_25 0
x_12_26 0
x_12_28 0
x_12_30 0
x_12_31 0
x_12_32 0
x_12_33 0
x_12_34 0
x_12_36 0
x_12_38 0
x_12_39 0
x_12_41 0
x_12_43 0
x_12_46 0
x_12_47 0
x_12_48 0
x_12_49 0
x_12_50 0
x_12_51 0
x_12_56 0
x_12_57 0
x_12_59 0
x_12_60 0
x_12_62 0
x_12_63 0
x_12_64 0
x_12_69 0
x_12_72 0
x_12_75 0
x_12_77 0
x_12_79 0
x_12_80 0
x_12_87 0
x_12_88 0
x_12_89 0
x_12_92 0
x_12_93 0
x_12_96 0
x_12_98 0
x_12_99 0
x_12_100 0
x_12_102 0
x_12_103 0
x_12_108 0
x_12_110 0
x_12_111 0
x_12_112 0
x_12_114 0
x_12_118 0
x_12_121 0
x_12_122 0
x_12_123 0
x_12_124 0
x_12_126 0
x_12_127 0
x_12_128 0
x_12_130 0
x_12_132 0
x_12_133 0
x_12_137 0
x_12_140 0
x_12_141 0
x_12_144 0
x_12_145 0
x_12_146 0
x_12_148 0
x_13_16 0
x_13_19 0
x_13_20 0
x_13_22 0
x_13_25 0
x_13_26 0
x_13_28 0
x_13_30 0
x_13_31 0
x_13_32 0
x_13_33 0
x_13_34 0
x_13_36 0
x_13_38 0
x_13_39 0
x_13_41 0
x_13_43 0
x_13_46 0
x_13_47 0
x_13_48 0
x_13_49 0
x_13_50 0
x_13_51 0
x_13_56 0
x_13_57 0
x_13_59 0
x_13_60 0
x_13_62 0
x_13_63 0
x_13_64 0
x_13_69 0
x_13_72 0
x_13_75 0
x_13_77 0
x_13_79 0
x_13_80 0
x_13_87 0
x_13_88 0
x_13_89 0
x_13_92 0
x_13_93 0
x_13_96 0
x_13_98 0
x_13_99 0
x_13_100 0
x_13_102 0
x_13_103 0
x_13_108 0
x_13_110 0
x_13_111 0
x_13_112 0
x_13_114 0
x_13_118 0
x_13_121 0
x_13_122 0
x_13_123 0
x_13_124 0
x_13_126 0
x_13_127 0
x_13_128 0
x_13_130 0
x_13_132 0
x_13_133 0
x_13_137 0
x_13_140 0
x_13_141 0
x_13_144 0
x_13_145 0
x_13_146 0
x_13_148 0
x_16_19 0
x_16_20 0
x_16_22 9.9999999999999967e-01
x_16_25 2.2204460492503131e-16
x_16_26 9.9999999999999933e-01
x_16_28 0
x_16_30 -2.2204460492503131e-16
x_16_31 0
x_16_32 0
x_16_33 0
x_16_34 0
x_16_36 0
x_16_38 0
x_16_39 0
x_16_41 0
x_16_43 1
x_16_46 0
x_16_47 0
x_16_48 0
x_16_49 1.0000000000000004e+00
x_16_50 0
x_16_51 0
x_16_56 1.0000000000000004e+00
x_16_57 0
x_16_59 1.0000000000000007e+00
x_16_60 0
x_16_62 0
x_16_63 0
x_16_64 0
x_16_69 0
x_16_72 0
x_16_75 0
x_16_77 0
x_16_79 0
x_16_80 1.0000000000000004e+00
x_16_87 0
x_16_88 0
x_16_89 0
x_16_92 0
x_16_93 0
x_16_96 9.9999999999999967e-01
x_16_98 1.0000000000000007e+00
x_16_99 0
x_16_100 0
x_16_102 1
x_16_103 0
x_16_108 1
x_16_110 1
x_16_111 1
x_16_112 0
x_16_114 0
x_16_118 0
x_16_121 0
x_16_122 0
x_16_123 3.3306690738754696e-16
x_16_124 1
x_16_126 0
x_16_127 0
x_16_128 1.0000000000000004e+00
x_16_130 0
x_16_132 0
x_16_133 0
x_16_137 0
x_16_140 1
x_16_141 0
x_16_144 0
x_16_145 0
x_16_146 0
x_16_148 0
x_19_20 0
x_19_22 0
x_19_25 0
x_19_26 0
x_19_28 0
x_19_30 0
x_19_31 0
x_19_32 0
x_19_33 0
x_19_34 0
x_19_36 1
x_19_38 0
x_19_39 0
x_19_41 0
x_19_43 0
x_19_46 0
x_19_47 0
x_19_48 0
x_19_49 0
x_19_50 0
x_19_51 0
x_19_56 0
x_19_57 0
x_19_59 0
x_19_60 0
x_19_62 0
x_19_63 0
x_19_64 0
x_19_69 0
x_19_72 1
x_19_75 0
x_19_77 0
x_19_79 0
x_19_80 0
x_19_87 0
x_19_88 0
x_19_89 0
x_19_92 0
x_19_93 0
x_19_96 0
x_19_98 0
x_19_99 1
x_19_100 0
x_19_102 0
x_19_103 0
x_19_108 0
x_19_110 0
x_19_111 0
x_19_112 0
x_19_114 0
x_19_118 0
x_19_121 0
x_19_122 0
x_19_123 0
x_19_124 0
x_19_126 0
x_19_127 0
x_19_128 0
x_19_130 0
x_19_132 0
x_19_133 0
x_19_137 0
x_19_140 0
x_19_141 0
x_19_144 0
x_19_145 0
x_19_146 0
x_19_148 0
x_20_22 0
x_20_25 0
x_20_26 0
x_20_28 1
x_20_30 0
x_20_31 0
x_20_32 0
x_20_33 0
x_20_34 0
x_20_36 0
x_20_38 1
x_20_39 0
x_20_41 0
x_20_43 0
x_20_46 0
x_20_47 0
x_20_48 0
x_20_49 0
x_20_50 0
x_20_51 0
x_20_56 0
x_20_57 0
x_20_59 0
x_20_60 0
x_20_62 0
x_20_63 0
x_20_64 1
x_20_69 0
x_20_72 0
x_20_75 0
x_20_77 0
x_20_79 1
x_20_80 0
x_20_87 0
x_20_88 1
x_20_89 0
x_20_92 0
x_20_93 0
x_20_96 0
x_20_98 0
x_20_99 0
x_20_100 0
x_20_102 0
x_20_103 0
x_20_108 0
x_20_110 0
x_20_111 0
x_20_112 0
x_20_114 0
x_20_118 0
x_20_121 0
x_20_122 0
x_20_123 0
x_20_124 0
x_20_126 1
x_20_127 0
x_20_128 0
x_20_130 0
x_20_132 0
x_20_133 0
x_20_137 0
x_20_140 0
x_20_141 1
x_20_144 0
x_20_145 0
x_20_146 0
x_20_148 0
x_22_25 3.3306690738754696e-16
x_22_26 1
x_22_28 0
x_22_30 -5.5511151231257827e-16
x_22_31 0
x_22_32 0
x_22_33 0
x_22_34 0
x_22_36 0
x_22_38 0
x_22_39 0
x_22_41 0
x_22_43 1
x_22_46 0
x_22_47 0
x_22_48 0
x_22_49 1
x_22_50 0
x_22_51 0
x_22_56 9.9999999999999978e-01
x_22_57 0
x_22_59 1
x_22_60 0
x_22_62 0
x_22_63 0
x_22_64 0
x_22_69 0
x_22_72 0
x_22_75 0
x_22_77 0
x_22_79 0
x_22_80 1
x_22_87 0
x_22_88 0
x_22_89 0
x_22_92 0
x_22_93 0
x_22_96 1
x_22_98 1
x_22_99 0
x_22_100 0
x_22_102 1
x_22_103 0
x_22_108 9.9999999999999978e-01
x_22_110 9.9999999999999978e-01
x_22_111 9.9999999999999922e-01
x_22_112 0
x_22_114 0
x_22_118 0
x_22_121 0
x_22_122 0
x_22_123 0
x_22_124 1
x_22_126 0
x_22_127 0
x_22_128 1
x_22_130 0
x_22_132 0
x_22_133 0
x_22_137 0
x_22_140 9.9999999999999956e-01
x_22_141 0
x_22_144 0
x_22_145 0
x_22_146 0
x_22_148 0
x_25_26 4.9960036108132044e-16
x_25_28 0
x_25_30 1.0000000000000002e+00
x_25_31 0
x_25_32 0
x_25_33 0
x_25_34 0
x_25_36 0
x_25_38 0
x_25_39 0
x_25_41 0
x_25_43 0
x_25_46 0
x_25_47 0
x_25_48 0
x_25_49 4.9960036108132044e-16
x_25_50 0
x_25_51 0
x_25_56 4.9960036108132044e-16
x_25_57 0
x_25_59 3.3306690738754696e-16
x_25_60 0
x_25_62 -2.2204460492503131e-16
x_25_63 0
x_25_64 0
x_25_69 0
x_25_72 0
x_25_75 0
x_25_77 0
x_25_79 0
x_25_80 3.3306690738754696e-16
x_25_87 0
x_25_88 0
x_25_89 0
x_25_92 0
x_25_93 0
x_25_96 2.2204460492503131e-16
x_25_98 3.3306690738754696e-16
x_25_99 0
x_25_100 0
x_25_102 2.2204460492503131e-16
x_25_103 0
x_25_108 2.2204460492503131e-16
x_25_110 4.9960036108132044e-16
x_25_111 4.9960036108132044e-16
x_25_112 0
x_25_114 0
x_25_118 0
x_25_121 0
x_25_122 0
x_25_123 0
x_25_124 3.3306690738754696e-16
x_25_126 0
x_25_127 0
x_25_128 6.6613381477509392e-16
x_25_130 0
x_25_132 0
x_25_133 0
x_25_137 0
x_25_140 4.9960036108132044e-16
x_25_141 0
x_25_144 0
x_25_145 0
x_25_146 0
x_25_148 0
x_26_28 0
x_26_30 0
x_26_31 0
x_26_32 0
x_26_33 0
x_26_34 0
x_26_36 0
x_26_38 0
x_26_39 0
x_26_41 0
x_26_43 1
x_26_46 0
x_26_47 0
x_26_48 0
x_26_49 1
x_26_50 0
x_26_51 0
x_26_56 1
x_26_57 0
x_26_59 1.0000000000000002e+00
x_26_60 0
x_26_62 0
x_26_63 0
x_26_64 0
x_26_69 0
x_26_72 0
x_26_75 0
x_26_77 0
x_26_79 0
x_26_80 1
x_26_87 0
x_26_88 0
x_26_89 0
x_26_92 0
x_26_93 0
x_26_96 1
x_26_98 1
x_26_99 0
x_26_100 0
x_26_102 1
x_26_103 0
x_26_108 1
x_26_110 1
x_26_111 1
x_26_112 0
x_26_114 0
x_26_118 0
x_26_121 0
x_26_122 0
x_26_123 0
x_26_124 1
x_26_126 0
x_26_127 0
x_26_128 1
x_26_130 0
x_26_132 0
x_26_133 0
x_26_137 0
x_26_140 1
x_26_141 0
x_26_144 0
x_26_145 0
x_26_146 0
x_26_148 0
x_28_30 0
x_28_31 0
x_28_32 0
x_28_33 0
x_28_34 0
x_28_36 0
x_28_38 1
x_28_39 0
x_28_41 0
x_28_43 0
x_28_46 0
x_28_47 0
x_28_48 0
x_28_49 0
x_28_50 0
x_28_51 0
x_28_56 0
x_28_57 0
x_28_59 0
x_28_60 0
x_28_62 0
x_28_63 0
x_28_64 1
x_28_69 0
x_28_72 0
x_28_75 0
x_28_77 0
x_28_79 1
x_28_80 0
x_28_87 0
x_28_88 1
x_28_89 0
x_28_92 0
x_28_93 0
x_28_96 0
x_28_98 0
x_28_99 0
x_28_100 0
x_28_102 0
x_28_103 0
x_28_108 0
x_28_110 0
x_28_111 0
x_28_112 0
x_28_114 0
x_28_118 0
x_28_121 0
x_28_122 0
x_28_123 0
x_28_124 0
x_28_126 1
x_28_127 0
x_28_128 0
x_28_130 0
x_28_132 0
x_28_133 0
x_28_137 0
x_28_140 0
x_28_141 1
x_28_144 0
x_28_145 0
x_28_146 0
x_28_148 0
x_30_31 0
x_30_32 0
x_30_33 0
x_30_34 0
x_30_36 0
x_30_38 0
x_30_39 0
x_30_41 0
x_30_43 0
x_30_46 0
x_30_47 0
x_30_48 0
x_30_49 0
x_30_50 0
x_30_51 0
x_30_56 0
x_30_57 0
x_30_59 0
x_30_60 0
x_30_62 -2.2204460492503131e-16
x_30_63 0
x_30_64 0
x_30_69 0
x_30_72 0
x_30_75 0
x_30_77 0
x_30_79 0
x_30_80 0
x_30_87 0
x_30_88 0
x_30_89 0
x_30_92 0
x_30_93 0
x_30_96 0
x_30_98 0
x_30_99 0
x_30_100 0
x_30_102 0
x_30_103 0
x_30_108 0
x_30_110 0
x_30_111 0
x_30_112 0
x_30_114 0
x_30_118 0
x_30_121 0
x_30_122 0
x_30_123 0
x_30_124 0
x_30_126 0
x_30_127 0
x_30_128 0
x_30_130 0
x_30_132 0
x_30_133 0
x_30_137 0
x_30_140 0
x_30_141 0
x_30_144 0
x_30_145 0
x_30_146 0
x_30_148 0
x_31_32 0
x_31_33 0
x_31_34 0
x_31_36 0
x_31_38 0
x_31_39 0
x_31_41 0
x_31_43 0
x_31_46 0
x_31_47 0
x_31_48 0
x_31_49 0
x_31_50 0
x_31_51 0
x_31_56 0
x_31_57 0
x_31_59 0
x_31_60 0
x_31_62 0
x_31_63 0
x_31_64 0
x_31_69 0
x_31_72 0
x_31_75 0
x_31_77 0
x_31_79 0
x_31_80 0
x_31_87 0
x_31_88 0
x_31_89 0
x_31_92 0
x_31_93 0
x_31_96 0
x_31_98 0
x_31_99 0
x_31_100 0
x_31_102 0
x_31_103 0
x_31_108 0
x_31_110 0
x_31_111 0
x_31_112 0
x_31_114 0
x_31_118 0
x_31_121 0
x_31_122 0
x_31_123 0
x_31_124 0
x_31_126 0
x_31_127 0
x_31_128 0
x_31_130 0
x_31_132 1
x_31_133 0
x_31_137 0
x_31_140 0
x_31_141 0
x_31_144 0
x_31_145 0
x_31_146 1
x_31_148 0
x_32_33 0
x_32_34 0
x_32_36 0
x_32_38 0
x_32_39 0
x_32_41 0
x_32_43 0
x_32_46 0
x_32_47 0
x_32_48 0
x_32_49 0
x_32_50 0
x_32_51 0
x_32_56 0
x_32_57 0
x_32_59 0
x_32_60 0
x_32_62 0
x_32_63 0
x_32_64 0
x_32_69 0
x_32_72 0
x_32_75 0
x_32_77 0
x_32_79 0
x_32_80 0
x_32_87 0
x_32_88 0
x_32_89 0
x_32_92 0
x_32_93 0
x_32_96 0
x_32_98 0
x_32_99 0
x_32_100 0
x_32_102 0
x_32_103 0
x_32_108 0
x_32_110 0
x_32_111 0
x_32_112 0
x_32_114 0
x_32_118 0
x_32_121 1
x_32_122 0
x_32_123 0
x_32_124 0
x_32_126 0
x_32_127 0
x_32_128 0
x_32_130 0
x_32_132 0
x_32_133 0
x_32_137 1
x_32_140 0
x_32_141 0
x_32_144 0
x_32_145 0
x_32_146 0
x_32_148 0
x_33_34 0
x_33_36 0
x_33_38 0
x_33_39 0
x_33_41 0
x_33_43 0
x_33_46 0
x_33_47 0
x_33_48 0
x_33_49 0
x_33_50 0
x_33_51 0
x_33_56 0
x_33_57 0
x_33_59 0
x_33_60 0
x_33_62 0
x_33_63 0
x_33_64 0
x_33_69 0
x_33_72 0
x_33_75 0
x_33_77 0
x_33_79 0
x_33_80 0
x_33_87 0
x_33_88 0
x_33_89 0
x_33_92 0
x_33_93 0
x_33_96 0
x_33_98 0
x_33_99 0
x_33_100 0
x_33_102 0
x_33_103 0
x_33_108 0
x_33_110 0
x_33_111 0
x_33_112 0
x_33_114 0
x_33_118 0
x_33_121 0
x_33_122 0
x_33_123 0
x_33_124 0
x_33_126 0
x_33_127 0
x_33_128 0
x_33_130 0
x_33_132 0
x_33_133 0
x_33_137 0
x_33_140 0
x_33_141 0
x_33_144 0
x_33_145 0
x_33_146 0
x_33_148 0
x_34_36 0
x_34_38 0
x_34_39 0
x_34_41 0
x_34_43 0
x_34_46 0
x_34_47 0
x_34_48 0
x_34_49 0
x_34_50 0
x_34_51 0
x_34_56 0
x_34_57 0
x_34_59 0
x_34_60 0
x_34_62 0
x_34_63 0
x_34_64 0
x_34_69 0
x_34_72 0
x_34_75 0
x_34_77 0
x_34_79 0
x_34_80 0
x_34_87 0
x_34_88 0
x_34_89 0
x_34_92 0
x_34_93 0
x_34_96 0
x_34_98 0
x_34_99 0
x_34_100 0
x_34_102 0
x_34_103 0
x_34_108 0
x_34_110 0
x_34_111 0
x_34_112 0
x_34_114 0
x_34_118 0
x_34_121 0
x_34_122 0
x_34_123 0
x_34_124 0
x_34_126 0
x_34_127 0
x_34_128 0
x_34_130 0
x_34_132 0
x_34_133 0
x_34_137 0
x_34_140 0
x_34_141 0
x_34_144 0
x_34_145 0
x_34_146 0
x_34_148 0
x_36_38 0
x_36_39 0
x_36_41 0
x_36_43 0
x_36_46 0
x_36_47 0
x_36_48 0
x_36_49 0
x_36_50 0
x_36_51 0
x_36_56 0
x_36_57 0
x_36_59 0
x_36_60 0
x_36_62 0
x_36_63 0
x_36_64 0
x_36_69 0
x_36_72 1
x_36_75 0
x_36_77 0
x_36_79 0
x_36_80 0
x_36_87 0
x_36_88 0
x_36_89 0
x_36_92 0
x_36_93 0
x_36_96 0
x_36_98 0
x_36_99 1
x_36_100 0
x_36_102 0
x_36_103 0
x_36_108 0
x_36_110 0
x_36_111 0
x_36_112 0
x_36_114 0
x_36_118 0
x_36_121 0
x_36_122 0
x_36_123 0
x_36_124 0
x_36_126 0
x_36_127 0
x_36_128 0
x_36_130 0
x_36_132 0
x_36_133 0
x_36_137 0
x_36_140 0
x_36_141 0
x_36_144 0
x_36_145 0
x_36_146 0
x_36_148 0
x_38_39 0
x_38_41 0
x_38_43 0
x_38_46 0
x_38_47 0
x_38_48 0
x_38_49 0
x_38_50 0
x_38_51 0
x_38_56 0
x_38_57 0
x_38_59 0
x_38_60 0
x_38_62 0
x_38_63 0
x_38_64 1
x_38_69 0
x_38_72 0
x_38_75 0
x_38_77 0
x_38_79 1
x_38_80 0
x_38_87 0
x_38_88 1
x_38_89 0
x_38_92 0
x_38_93 0
x_38_96 0
x_38_98 0
x_38_99 0
x_38_100 0
x_38_102 0
x_38_103 0
x_38_108 0
x_38_110 0
x_38_111 0
x_38_112 0
x_38_114 0
x_38_118 0
x_38_121 0
x_38_122 0
x_38_123 0
x_38_124 0
x_38_126 1
x_38_127 0
x_38_128 0
x_38_130 0
x_38_132 0
x_38_133 0
x_38_137 0
x_38_140 0
x_38_141 1
x_38_144 0
x_38_145 0
x_38_146 0
x_38_148 0
x_39_41 0
x_39_43 0
x_39_46 0
x_39_47 0
x_39_48 0
x_39_49 0
x_39_50 0
x_39_51 0
x_39_56 0
x_39_57 0
x_39_59 0
x_39_60 1
x_39_62 0
x_39_63 0
x_39_64 0
x_39_69 0
x_39_72 0
x_39_75 0
x_39_77 0
x_39_79 0
x_39_80 0
x_39_87 0
x_39_88 0
x_39_89 0
x_39_92 0
x_39_93 0
x_39_96 0
x_39_98 0
x_39_99 0
x_39_100 0
x_39_102 0
x_39_103 0
x_39_108 0
x_39_110 0
x_39_111 0
x_39_112 0
x_39_114 0
x_39_118 0
x_39_121 0
x_39_122 0
x_39_123 0
x_39_124 0
x_39_126 0
x_39_127 0
x_39_128 0
x_39_130 0
x_39_132 0
x_39_133 0
x_39_137 0
x_39_140 0
x_39_141 0
x_39_144 0
x_39_145 0
x_39_146 0
x_39_148 0
x_41_43 0
x_41_46 0
x_41_47 0
x_41_48 0
x_41_49 0
x_41_50 0
x_41_51 0
x_41_56 0
x_41_57 0
x_41_59 0
x_41_60 0
x_41_62 0
x_41_63 0
x_41_64 0
x_41_69 0
x_41_72 0
x_41_75 0
x_41_77 0
x_41_79 0
x_41_80 0
x_41_87 0
x_41_88 0
x_41_89 0
x_41_92 0
x_41_93 0
x_41_96 0
x_41_98 0
x_41_99 0
x_41_100 0
x_41_102 0
x_41_103 0
x_41_108 0
x_41_110 0
x_41_111 0
x_41_112 0
x_41_114 0
x_41_118 0
x_41_121 0
x_41_122 0
x_41_123 0
x_41_124 0
x_41_126 0
x_41_127 0
x_41_128 0
x_41_130 0
x_41_132 0
x_41_133 0
x_41_137 0
x_41_140 0
x_41_141 0
x_41_144 0
x_41_145 0
x_41_146 0
x_41_148 0
x_43_46 0
x_43_47 0
x_43_48 0
x_43_49 1
x_43_50 0
x_43_51 0
x_43_56 1
x_43_57 0
x_43_59 1.0000000000000007e+00
x_43_60 0
x_43_62 0
x_43_63 0
x_43_64 0
x_43_69 0
x_43_72 0
x_43_75 0
x_43_77 0
x_43_79 0
x_43_80 1
x_43_87 0
x_43_88 0
x_43_89 0
x_43_92 0
x_43_93 0
x_43_96 1
x_43_98 1
x_43_99 0
x_43_100 0
x_43_102 1
x_43_103 0
x_43_108 1
x_43_110 9.9999999999999933e-01
x_43_111 1.0000000000000002e+00
x_43_112 0
x_43_114 0
x_43_118 0
x_43_121 0
x_43_122 0
x_43_123 0
x_43_124 1
x_43_126 0
x_43_127 0
x_43_128 1
x_43_130 0
x_43_132 0
x_43_133 0
x_43_137 0
x_43_140 1
x_43_141 0
x_43_144 0
x_43_145 0
x_43_146 0
x_43_148 0
x_46_47 0
x_46_48 0
x_46_49 0
x_46_50 0
x_46_51 0
x_46_56 0
x_46_57 0
x_46_59 0
x_46_60 0
x_46_62 0
x_46_63 0
x_46_64 0
x_46_69 0
x_46_72 0
x_46_75 0
x_46_77 0
x_46_79 0
x_46_80 0
x_46_87 0
x_46_88 0
x_46_89 0
x_46_92 0
x_46_93 0
x_46_96 0
x_46_98 0
x_46_99 0
x_46_100 0
x_46_102 0
x_46_103 0
x_46_108 0
x_46_110 0
x_46_111 0
x_46_112 0
x_46_114 0
x_46_118 0
x_46_121 0
x_46_122 0
x_46_123 0
x_46_124 0
x_46_126 0
x_46_127 0
x_46_128 0
x_46_130 0
x_46_132 0
x_46_133 0
x_46_137 0
x_46_140 0
x_46_141 0
x_46_144 0
x_46_145 0
x_46_146 0
x_46_148 0
x_47_48 0
x_47_49 1.1102230246251565e-16
x_47_50 1
x_47_51 0
x_47_56 0
x_47_57 0
x_47_59 0
x_47_60 0
x_47_62 0
x_47_63 0
x_47_64 0
x_47_69 0
x_47_72 0
x_47_75 0
x_47_77 0
x_47_79 0
x_47_80 0
x_47_87 0
x_47_88 0
x_47_89 0
x_47_92 0
x_47_93 0
x_47_96 0
x_47_98 0
x_47_99 0
x_47_100 0
x_47_102 0
x_47_103 0
x_47_108 0
x_47_110 0
x_47_111 0
x_47_112 0
x_47_114 1
x_47_118 0
x_47_121 0
x_47_122 0
x_47_123 0
x_47_124 0
x_47_126 0
x_47_127 0
x_47_128 0
x_47_130 0
x_47_132 0
x_47_133 0
x_47_137 0
x_47_140 0
x_47_141 0
x_47_144 0
x_47_145 0
x_47_146 0
x_47_148 0
x_48_49 0
x_48_50 0
x_48_51 0
x_48_56 0
x_48_57 0
x_48_59 0
x_48_60 0
x_48_62 0
x_48_63 0
x_48_64 0
x_48_69 0
x_48_72 0
x_48_75 0
x_48_77 0
x_48_79 0
x_48_80 0
x_48_87 0
x_48_88 0
x_48_89 0
x_48_92 0
x_48_93 0
x_48_96 0
x_48_98 0
x_48_99 0
x_48_100 0
x_48_102 0
x_48_103 0
x_48_108 0
x_48_110 0
x_48_111 0
x_48_112 0
x_48_114 0
x_48_118 0
x_48_121 0
x_48_122 0
x_48_123 0
x_48_124 0
x_48_126 0
x_48_127 0
x_48_128 0
x_48_130 0
x_48_132 0
x_48_133 0
x_48_137 0
x_48_140 0
x_48_141 0
x_48_144 0
x_48_145 0
x_48_146 0
x_48_148 0
x_49_50 0
x_49_51 0
x_49_56 1
x_49_57 0
x_49_59 1
x_49_60 0
x_49_62 0
x_49_63 0
x_49_64 0
x_49_69 0
x_49_72 0
x_49_75 0
x_49_77 0
x_49_79 0
x_49_80 1
x_49_87 0
x_49_88 0
x_49_89 0
x_49_92 0
x_49_93 0
x_49_96 1
x_49_98 1
x_49_99 0
x_49_100 0
x_49_102 1
x_49_103 0
x_49_108 1.0000000000000002e+00
x_49_110 1
x_49_111 1
x_49_112 0
x_49_114 2.7755575615628914e-16
x_49_118 0
x_49_121 0
x_49_122 0
x_49_123 0
x_49_124 1
x_49_126 0
x_49_127 0
x_49_128 1
x_49_130 0
x_49_132 0
x_49_133 0
x_49_137 0
x_49_140 9.9999999999999956e-01
x_49_141 0
x_49_144 0
x_49_145 0
x_49_146 0
x_49_148 0
x_50_51 0
x_50_56 0
x_50_57 0
x_50_59 0
x_50_60 0
x_50_62 0
x_50_63 0
x_50_64 0
x_50_69 0
x_50_72 0
x_50_75 0
x_50_77 0
x_50_79 0
x_50_80 0
x_50_87 0
x_50_88 0
x_50_89 0
x_50_92 0
x_50_93 0
x_50_96 0
x_50_98 0
x_50_99 0
x_50_100 0
x_50_102 0
x_50_103 0
x_50_108 0
x_50_110 0
x_50_111 -6.6613381477509392e-16
x_50_112 0
x_50_114 1
x_50_118 0
x_50_121 0
x_50_122 0
x_50_123 0
x_50_124 0
x_50_126 0
x_50_127 0
x_50_128 0
x_50_130 0
x_50_132 0
x_50_133 0
x_50_137 0
x_50_140 0
x_50_141 0
x_50_144 0
x_50_145 0
x_50_146 0
x_50_148 0
x_51_56 0
x_51_57 0
x_51_59 -1.1102230246251565e-16
x_51_60 0
x_51_62 -2.2204460492503131e-16
x_51_63 0
x_51_64 0
x_51_69 0
x_51_72 0
x_51_75 0
x_51_77 0
x_51_79 0
x_51_80 0
x_51_87 0
x_51_88 0
x_51_89 0
x_51_92 0
x_51_93 0
x_51_96 0
x_51_98 0
x_51_99 0
x_51_100 0
x_51_102 0
x_51_103 0
x_51_108 0
x_51_110 0
x_51_111 0
x_51_112 0
x_51_114 0
x_51_118 0
x_51_121 0
x_51_122 0
x_51_123 0
x_51_124 0
x_51_126 0
x_51_127 0
x_51_128 3.3306690738754696e-16
x_51_130 0
x_51_132 0
x_51_133 0
x_51_137 0
x_51_140 0
x_51_141 0
x_51_144 0
x_51_145 0
x_51_146 0
x_51_148 0
x_56_57 0
x_56_59 1
x_56_60 0
x_56_62 0
x_56_63 0
x_56_64 0
x_56_69 0
x_56_72 0
x_56_75 0
x_56_77 0
x_56_79 0
x_56_80 1
x_56_87 0
x_56_88 0
x_56_89 0
x_56_92 0
x_56_93 0
x_56_96 1
x_56_98 1.0000000000000002e+00
x_56_99 0
x_56_100 0
x_56_102 1
x_56_103 0
x_56_108 1
x_56_110 1
x_56_111 1.0000000000000002e+00
x_56_112 0
x_56_114 0
x_56_118 0
x_56_121 0
x_56_122 0
x_56_123 0
x_56_124 1
x_56_126 0
x_56_127 0
x_56_128 1
x_56_130 3.3306690738754696e-16
x_56_132 0
x_56_133 0
x_56_137 0
x_56_140 1
x_56_141 0
x_56_144 0
x_56_145 0
x_56_146 0
x_56_148 0
x_57_59 0
x_57_60 0
x_57_62 0
x_57_63 0
x_57_64 0
x_57_69 0
x_57_72 0
x_57_75 0
x_57_77 0
x_57_79 0
x_57_80 0
x_57_87 0
x_57_88 0
x_57_89 1
x_57_92 0
x_57_93 1
x_57_96 0
x_57_98 0
x_57_99 0
x_57_100 0
x_57_102 0
x_57_103 1
x_57_108 0
x_57_110 0
x_57_111 0
x_57_112 0
x_57_114 0
x_57_118 0
x_57_121 0
x_57_122 0
x_57_123 0
x_57_124 0
x_57_126 0
x_57_127 0
x_57_128 0
x_57_130 0
x_57_132 0
x_57_133 1
x_57_137 0
x_57_140 0
x_57_141 0
x_57_144 0
x_57_145 0
x_57_146 0
x_57_148 0
x_59_60 0
x_59_62 0
x_59_63 0
x_59_64 0
x_59_69 0
x_59_72 0
x_59_75 0
x_59_77 0
x_59_79 0
x_59_80 1
x_59_87 0
x_59_88 0
x_59_89 0
x_59_92 0
x_59_93 0
x_59_96 1
x_59_98 1
x_59_99 0
x_59_100 0
x_59_102 1
x_59_103 0
x_59_108 1
x_59_110 1
x_59_111 1.0000000000000007e+00
x_59_112 0
x_59_114 0
x_59_118 0
x_59_121 0
x_59_122 0
x_59_123 0
x_59_124 1
x_59_126 0
x_59_127 0
x_59_128 9.9999999999999978e-01
x_59_130 0
x_59_132 0
x_59_133 0
x_59_137 0
x_59_140 9.9999999999999933e-01
x_59_141 0
x_59_144 0
x_59_145 0
x_59_146 0
x_59_148 0
x_60_62 0
x_60_63 0
x_60_64 0
x_60_69 0
x_60_72 0
x_60_75 0
x_60_77 0
x_60_79 0
x_60_80 0
x_60_87 0
x_60_88 0
x_60_89 0
x_60_92 0
x_60_93 0
x_60_96 0
x_60_98 0
x_60_99 0
x_60_100 0
x_60_102 0
x_60_103 0
x_60_108 0
x_60_110 0
x_60_111 0
x_60_112 0
x_60_114 0
x_60_118 0
x_60_121 0
x_60_122 0
x_60_123 0
x_60_124 0
x_60_126 0
x_60_127 0
x_60_128 0
x_60_130 0
x_60_132 0
x_60_133 0
x_60_137 0
x_60_140 0
x_60_141 0
x_60_144 0
x_60_145 0
x_60_146 0
x_60_148 0
x_62_63 0
x_62_64 0
x_62_69 0
x_62_72 0
x_62_75 0
x_62_77 0
x_62_79 0
x_62_80 0
x_62_87 0
x_62_88 0
x_62_89 0
x_62_92 0
x_62_93 0
x_62_96 0
x_62_98 0
x_62_99 0
x_62_100 0
x_62_102 0
x_62_103 0
x_62_108 -2.2204460492503131e-16
x_62_110 0
x_62_111 -2.2204460492503131e-16
x_62_112 0
x_62_114 0
x_62_118 0
x_62_121 0
x_62_122 0
x_62_123 0
x_62_124 0
x_62_126 0
x_62_127 0
x_62_128 -2.2204460492503131e-16
x_62_130 0
x_62_132 0
x_62_133 0
x_62_137 0
x_62_140 0
x_62_141 0
x_62_144 0
x_62_145 0
x_62_146 0
x_62_148 1.0000000000000002e+00
x_63_64 0
x_63_69 0
x_63_72 0
x_63_75 0
x_63_77 0
x_63_79 0
x_63_80 0
x_63_87 0
x_63_88 0
x_63_89 0
x_63_92 0
x_63_93 0
x_63_96 0
x_63_98 0
x_63_99 0
x_63_100 0
x_63_102 0
x_63_103 0
x_63_108 0
x_63_110 0
x_63_111 0
x_63_112 0
x_63_114 0
x_63_118 0
x_63_121 0
x_63_122 0
x_63_123 0
x_63_124 0
x_63_126 0
x_63_127 0
x_63_128 0
x_63_130 0
x_63_132 0
x_63_133 0
x_63_137 0
x_63_140 0
x_63_141 0
x_63_144 0
x_63_145 0
x_63_146 0
x_63_148 0
x_64_69 0
x_64_72 0
x_64_75 0
x_64_77 0
x_64_79 1
x_64_80 0
x_64_87 0
x_64_88 1
x_64_89 0
x_64_92 0
x_64_93 0
x_64_96 0
x_64_98 0
x_64_99 0
x_64_100 0
x_64_102 0
x_64_103 0
x_64_108 0
x_64_110 0
x_64_111 0
x_64_112 0
x_64_114 0
x_64_118 0
x_64_121 0
x_64_122 0
x_64_123 0
x_64_124 0
x_64_126 1
x_64_127 0
x_64_128 0
x_64_130 0
x_64_132 0
x_64_133 0
x_64_137 0
x_64_140 0
x_64_141 1
x_64_144 0
x_64_145 0
x_64_146 0
x_64_148 0
x_69_72 0
x_69_75 0
x_69_77 0
x_69_79 0
x_69_80 0
x_69_87 1
x_69_88 0
x_69_89 0
x_69_92 0
x_69_93 0
x_69_96 0
x_69_98 0
x_69_99 0
x_69_100 1
x_69_102 0
x_69_103 0
x_69_108 0
x_69_110 0
x_69_111 0
x_69_112 0
x_69_114 0
x_69_118 0
x_69_121 0
x_69_122 0
x_69_123 0
x_69_124 0
x_69_126 0
x_69_127 0
x_69_128 0
x_69_130 0
x_69_132 0
x_69_133 0
x_69_137 0
x_69_140 0
x_69_141 0
x_69_144 0
x_69_145 0
x_69_146 0
x_69_148 0
x_72_75 0
x_72_77 0
x_72_79 0
x_72_80 0
x_72_87 0
x_72_88 0
x_72_89 0
x_72_92 0
x_72_93 0
x_72_96 0
x_72_98 0
x_72_99 1
x_72_100 0
x_72_102 0
x_72_103 0
x_72_108 0
x_72_110 0
x_72_111 0
x_72_112 0
x_72_114 0
x_72_118 0
x_72_121 0
x_72_122 0
x_72_123 0
x_72_124 0
x_72_126 0
x_72_127 0
x_72_128 0
x_72_130 0
x_72_132 0
x_72_133 0
x_72_137 0
x_72_140 0
x_72_141 0
x_72_144 0
x_72_145 0
x_72_146 0
x_72_148 0
x_75_77 0
x_75_79 0
x_75_80 0
x_75_87 0
x_75_88 0
x_75_89 0
x_75_92 0
x_75_93 0
x_75_96 0
x_75_98 0
x_75_99 0
x_75_100 0
x_75_102 0
x_75_103 0
x_75_108 0
x_75_110 0
x_75_111 0
x_75_112 0
x_75_114 0
x_75_118 0
x_75_121 0
x_75_122 0
x_75_123 0
x_75_124 0
x_75_126 0
x_75_127 0
x_75_128 0
x_75_130 0
x_75_132 0
x_75_133 0
x_75_137 0
x_75_140 0
x_75_141 0
x_75_144 0
x_75_145 0
x_75_146 0
x_75_148 0
x_77_79 0
x_77_80 0
x_77_87 0
x_77_88 0
x_77_89 0
x_77_92 0
x_77_93 0
x_77_96 0
x_77_98 0
x_77_99 0
x_77_100 0
x_77_102 0
x_77_103 0
x_77_108 0
x_77_110 0
x_77_111 0
x_77_112 0
x_77_114 0
x_77_118 0
x_77_121 0
x_77_122 0
x_77_123 0
x_77_124 0
x_77_126 0
x_77_127 0
x_77_128 0
x_77_130 0
x_77_132 0
x_77_133 0
x_77_137 0
x_77_140 0
x_77_141 0
x_77_144 0
x_77_145 0
x_77_146 0
x_77_148 0
x_79_80 0
x_79_87 0
x_79_88 1
x_79_89 0
x_79_92 0
x_79_93 0
x_79_96 0
x_79_98 0
x_79_99 0
x_79_100 0
x_79_102 0
x_79_103 0
x_79_108 0
x_79_110 0
x_79_111 0
x_79_112 0
x_79_114 0
x_79_118 0
x_79_121 0
x_79_122 0
x_79_123 0
x_79_124 0
x_79_126 1
x_79_127 0
x_79_128 0
x_79_130 0
x_79_132 0
x_79_133 0
x_79_137 0
x_79_140 0
x_79_141 1
x_79_144 0
x_79_145 0
x_79_146 0
x_79_148 0
x_80_87 0
x_80_88 0
x_80_89 0
x_80_92 0
x_80_93 0
x_80_96 1
x_80_98 1
x_80_99 0
x_80_100 0
x_80_102 1
x_80_103 0
x_80_108 1
x_80_110 9.9999999999999978e-01
x_80_111 1.0000000000000002e+00
x_80_112 0
x_80_114 0
x_80_118 0
x_80_121 0
x_80_122 0
x_80_123 0
x_80_124 1
x_80_126 0
x_80_127 0
x_80_128 9.9999999999999956e-01
x_80_130 0
x_80_132 0
x_80_133 0
x_80_137 0
x_80_140 9.9999999999999956e-01
x_80_141 0
x_80_144 0
x_80_145 0
x_80_146 0
x_80_148 0
x_87_88 0
x_87_89 0
x_87_92 0
x_87_93 0
x_87_96 0
x_87_98 0
x_87_99 0
x_87_100 1
x_87_102 0
x_87_103 0
x_87_108 0
x_87_110 0
x_87_111 0
x_87_112 0
x_87_114 0
x_87_118 0
x_87_121 0
x_87_122 0
x_87_123 0
x_87_124 0
x_87_126 0
x_87_127 0
x_87_128 0
x_87_130 0
x_87_132 0
x_87_133 0
x_87_137 0
x_87_140 0
x_87_141 0
x_87_144 0
x_87_145 0
x_87_146 0
x_87_148 0
x_88_89 0
x_88_92 0
x_88_93 0
x_88_96 0
x_88_98 0
x_88_99 0
x_88_100 0
x_88_102 0
x_88_103 0
x_88_108 0
x_88_110 0
x_88_111 0
x_88_112 0
x_88_114 0
x_88_118 0
x_88_121 0
x_88_122 0
x_88_123 0
x_88_124 0
x_88_126 1
x_88_127 0
x_88_128 0
x_88_130 0
x_88_132 0
x_88_133 0
x_88_137 0
x_88_140 0
x_88_141 1
x_88_144 0
x_88_145 0
x_88_146 0
x_88_148 0
x_89_92 0
x_89_93 1
x_89_96 0
x_89_98 0
x_89_99 0
x_89_100 0
x_89_102 0
x_89_103 1
x_89_108 0
x_89_110 0
x_89_111 0
x_89_112 0
x_89_114 0
x_89_118 0
x_89_121 0
x_89_122 0
x_89_123 0
x_89_124 0
x_89_126 0
x_89_127 0
x_89_128 0
x_89_130 0
x_89_132 0
x_89_133 1
x_89_137 0
x_89_140 3.3306690738754696e-16
x_89_141 0
x_89_144 0
x_89_145 0
x_89_146 0
x_89_148 0
x_92_93 0
x_92_96 0
x_92_98 0
x_92_99 0
x_92_100 0
x_92_102 0
x_92_103 0
x_92_108 0
x_92_110 0
x_92_111 0
x_92_112 0
x_92_114 0
x_92_118 0
x_92_121 0
x_92_122 0
x_92_123 0
x_92_124 0
x_92_126 0
x_92_127 0
x_92_128 0
x_92_130 0
x_92_132 0
x_92_133 0
x_92_137 0
x_92_140 0
x_92_141 0
x_92_144 0
x_92_145 0
x_92_146 0
x_92_148 0
x_93_96 0
x_93_98 0
x_93_99 0
x_93_100 0
x_93_102 0
x_93_103 1
x_93_108 0
x_93_110 0
x_93_111 0
x_93_112 0
x_93_114 0
x_93_118 0
x_93_121 0
x_93_122 0
x_93_123 0
x_93_124 0
x_93_126 0
x_93_127 0
x_93_128 0
x_93_130 0
x_93_132 0
x_93_133 1
x_93_137 0
x_93_140 0
x_93_141 0
x_93_144 0
x_93_145 0
x_93_146 0
x_93_148 0
x_96_98 1
x_96_99 0
x_96_100 0
x_96_102 1
x_96_103 0
x_96_108 1
x_96_110 1
x_96_111 1.0000000000000007e+00
x_96_112 0
x_96_114 9.9920072216264089e-16
x_96_118 0
x_96_121 0
x_96_122 0
x_96_123 0
x_96_124 1
x_96_126 0
x_96_127 0
x_96_128 1
x_96_130 0
x_96_132 0
x_96_133 0
x_96_137 0
x_96_140 1
x_96_141 0
x_96_144 0
x_96_145 0
x_96_146 0
x_96_148 0
x_98_99 0
x_98_100 0
x_98_102 1.0000000000000007e+00
x_98_103 0
x_98_108 1.0000000000000007e+00
x_98_110 1.0000000000000007e+00
x_98_111 1.0000000000000007e+00
x_98_112 0
x_98_114 0
x_98_118 0
x_98_121 0
x_98_122 0
x_98_123 0
x_98_124 1
x_98_126 0
x_98_127 0
x_98_128 1.0000000000000002e+00
x_98_130 0
x_98_132 0
x_98_133 0
x_98_137 0
x_98_140 1
x_98_141 0
x_98_144 0
x_98_145 0
x_98_146 0
x_98_148 0
x_99_100 0
x_99_102 0
x_99_103 0
x_99_108 0
x_99_110 0
x_99_111 0
x_99_112 0
x_99_114 0
x_99_118 0
x_99_121 0
x_99_122 0
x_99_123 0
x_99_124 0
x_99_126 0
x_99_127 0
x_99_128 0
x_99_130 0
x_99_132 0
x_99_133 0
x_99_137 0
x_99_140 0
x_99_141 0
x_99_144 0
x_99_145 0
x_99_146 0
x_99_148 0
x_100_102 0
x_100_103 0
x_100_108 0
x_100_110 0
x_100_111 0
x_100_112 0
x_100_114 0
x_100_118 0
x_100_121 0
x_100_122 0
x_100_123 0
x_100_124 0
x_100_126 0
x_100_127 0
x_100_128 0
x_100_130 0
x_100_132 0
x_100_133 0
x_100_137 0
x_100_140 0
x_100_141 0
x_100_144 0
x_100_145 0
x_100_146 0
x_100_148 0
x_102_103 1.1102230246251565e-16
x_102_108 1
x_102_110 1
x_102_111 1
x_102_112 0
x_102_114 0
x_102_118 0
x_102_121 0
x_102_122 0
x_102_123 0
x_102_124 1
x_102_126 0
x_102_127 0
x_102_128 1
x_102_130 0
x_102_132 0
x_102_133 0
x_102_137 0
x_102_140 1
x_102_141 0
x_102_144 0
x_102_145 0
x_102_146 0
x_102_148 0
x_103_108 0
x_103_110 0
x_103_111 0
x_103_112 0
x_103_114 0
x_103_118 0
x_103_121 0
x_103_122 0
x_103_123 0
x_103_124 0
x_103_126 0
x_103_127 0
x_103_128 1.1102230246251565e-16
x_103_130 0
x_103_132 0
x_103_133 1
x_103_137 0
x_103_140 0
x_103_141 0
x_103_144 0
x_103_145 0
x_103_146 0
x_103_148 0
x_108_110 1
x_108_111 1
x_108_112 0
x_108_114 0
x_108_118 0
x_108_121 0
x_108_122 0
x_108_123 3.3306690738754696e-16
x_108_124 1
x_108_126 0
x_108_127 0
x_108_128 1
x_108_130 0
x_108_132 0
x_108_133 0
x_108_137 0
x_108_140 1
x_108_141 0
x_108_144 0
x_108_145 0
x_108_146 0
x_108_148 0
x_110_111 1
x_110_112 0
x_110_114 0
x_110_118 0
x_110_121 0
x_110_122 3.3306690738754696e-16
x_110_123 0
x_110_124 1
x_110_126 0
x_110_127 0
x_110_128 1
x_110_130 3.3306690738754696e-16
x_110_132 0
x_110_133 0
x_110_137 0
x_110_140 1
x_110_141 0
x_110_144 0
x_110_145 0
x_110_146 0
x_110_148 0
x_111_112 0
x_111_114 4.9960036108132044e-16
x_111_118 0
x_111_121 0
x_111_122 0
x_111_123 0
x_111_124 9.9999999999999933e-01
x_111_126 0
x_111_127 0
x_111_128 1.0000000000000002e+00
x_111_130 0
x_111_132 0
x_111_133 0
x_111_137 0
x_111_140 1
x_111_141 0
x_111_144 0
x_111_145 0
x_111_146 0
x_111_148 0
x_112_114 0
x_112_118 0
x_112_121 0
x_112_122 0
x_112_123 0
x_112_124 0
x_112_126 0
x_112_127 0
x_112_128 0
x_112_130 0
x_112_132 0
x_112_133 0
x_112_137 0
x_112_140 0
x_112_141 0
x_112_144 0
x_112_145 0
x_112_146 0
x_112_148 0
x_114_118 0
x_114_121 0
x_114_122 0
x_114_123 0
x_114_124 0
x_114_126 0
x_114_127 0
x_114_128 0
x_114_130 0
x_114_132 0
x_114_133 0
x_114_137 0
x_114_140 0
x_114_141 0
x_114_144 0
x_114_145 0
x_114_146 0
x_114_148 0
x_118_121 0
x_118_122 0
x_118_123 0
x_118_124 0
x_118_126 0
x_118_127 0
x_118_128 0
x_118_130 0
x_118_132 0
x_118_133 0
x_118_137 0
x_118_140 0
x_118_141 0
x_118_144 0
x_118_145 0
x_118_146 0
x_118_148 0
x_121_122 0
x_121_123 0
x_121_124 0
x_121_126 0
x_121_127 0
x_121_128 0
x_121_130 0
x_121_132 0
x_121_133 0
x_121_137 1
x_121_140 0
x_121_141 0
x_121_144 0
x_121_145 0
x_121_146 0
x_121_148 0
x_122_123 0
x_122_124 0
x_122_126 0
x_122_127 0
x_122_128 0
x_122_130 0
x_122_132 0
x_122_133 0
x_122_137 0
x_122_140 3.3306690738754696e-16
x_122_141 0
x_122_144 0
x_122_145 0
x_122_146 0
x_122_148 0
x_123_124 0
x_123_126 0
x_123_127 0
x_123_128 0
x_123_130 0
x_123_132 0
x_123_133 0
x_123_137 0
x_123_140 0
x_123_141 0
x_123_144 0
x_123_145 0
x_123_146 0
x_123_148 0
x_124_126 0
x_124_127 0
x_124_128 1
x_124_130 0
x_124_132 0
x_124_133 0
x_124_137 0
x_124_140 9.9999999999999956e-01
x_124_141 0
x_124_144 0
x_124_145 0
x_124_146 0
x_124_148 0
x_126_127 0
x_126_128 0
x_126_130 0
x_126_132 0
x_126_133 0
x_126_137 0
x_126_140 0
x_126_141 1
x_126_144 0
x_126_145 0
x_126_146 0
x_126_148 0
x_127_128 0
x_127_130 0
x_127_132 0
x_127_133 0
x_127_137 0
x_127_140 0
x_127_141 0
x_127_144 0
x_127_145 0
x_127_146 0
x_127_148 0
x_128_130 3.3306690738754696e-16
x_128_132 0
x_128_133 0
x_128_137 0
x_128_140 1
x_128_141 0
x_128_144 0
x_128_145 0
x_128_146 0
x_128_148 0
x_130_132 0
x_130_133 0
x_130_137 0
x_130_140 0
x_130_141 0
x_130_144 0
x_130_145 0
x_130_146 0
x_130_148 0
x_132_133 0
x_132_137 0
x_132_140 0
x_132_141 0
x_132_144 0
x_132_145 0
x_132_146 1
x_132_148 0
x_133_137 0
x_133_140 0
x_133_141 0
x_133_144 0
x_133_145 0
x_133_146 0
x_133_148 0
x_137_140 0
x_137_141 0
x_137_144 0
x_137_145 0
x_137_146 0
x_137_148 0
x_140_141 0
x_140_144 0
x_140_145 0
x_140_146 0
x_140_148 0
x_141_144 0
x_141_145 0
x_141_146 0
x_141_148 0
x_144_145 0
x_144_146 0
x_144_148 0
x_145_146 0
x_145_148 0
x_146_148 0
